unsat
(:added-eqs                   922542
 :arith-eq-adapter            3056
 :arith-bound-propagations-lp 2662
 :arith-conflicts             114
 :arith-diseq                 50250
 :arith-fixed-eqs             67884
 :arith-lower                 54827
 :arith-make-feasible         22977
 :arith-max-columns           1194
 :arith-max-rows              648
 :arith-offset-eqs            19594
 :arith-upper                 66869
 :binary-propagations         3939993
 :conflicts                   8449
 :decisions                   678832
 :del-clause                  9546
 :elim-unconstrained          4
 :max-memory                  42.50
 :memory                      25.54
 :minimized-lits              65552
 :mk-bool-var                 20936
 :mk-clause                   18873
 :mk-clause-binary            56838
 :num-allocs                  150776564
 :num-checks                  1
 :propagations                5255962
 :restarts                    61
 :rlimit-count                20895051
 :time                        6.35
 :total-time                  6.48)
